NAME: Random_80_4
ELLAPSED_TIME_(ms): 1
TOUR_SIZE: 2435.4429
TOUR_SECTION
0
53
46
2
44
64
26
74
76
71
40
36
13
49
35
18
22
45
30
60
59
42
39
51
70
56
23
25
24
27
9
8
32
66
52
31
28
6
50
11
21
12
57
7
75
55
16
54
4
41
3
20
73
34
78
62
15
14
72
61
77
69
79
33
63
37
5
17
29
65
48
43
67
47
58
38
1
10
19
68
0
EOF
